========================================================== 
File name: C:\DEGR\assets\definitions\MSRCPSP_Gen\100_10_64_5_C.def
Creation date: Wed May 03 10:37:58 CEST 2023
Website: http://imopse.ii.pwr.edu.pl/ 
Reference: 
Myszkowski P. B., Skowronski M. E., Olech L., Oslizlo K., 
Hybrid Ant Colony Optimization in solving Multi-Skill Resource-Constrained Project Scheduling Problem, 
Soft Computing, DOI: DOI 10.1007/s00500-014-1455-x 
========================================================== 
General characteristics: 
Tasks: 100
Resources: 10
Precedence relations: 63
Number of skill types: 5
========================================================== 
ResourceID 	 Salary 	 Skills 
1	 	 	26.1	 	 Q0: 1 	  Q2: 1 	  Q4: 3 	 
2	 	 	74.0	 	 Q0: 2 	 
3	 	 	99.2	 	 Q1: 3 	  Q3: 3 	  Q2: 0 	 
4	 	 	39.7	 	 Q3: 3 	 
5	 	 	90.7	 	 Q1: 3 	  Q4: 1 	  Q3: 1 	 
6	 	 	10.4	 	 Q4: 0 	  Q1: 2 	  Q3: 3 	  Q2: 0 	 
7	 	 	88.6	 	 Q1: 3 	  Q2: 3 	 
8	 	 	17.3	 	 Q3: 3 	 
9	 	 	79.6	 	 Q1: 0 	 
10	 	 	35.5	 	 Q1: 1 	  Q4: 0 	 
========================================================== 
TaskID 	 Duration 	 Skill 	 Predecessor IDs 
1	24	Q4:	3
2	31	Q3:	3
3	40	Q4:	3
4	27	Q4:	0
5	11	Q1:	3
6	30	Q1:	1
7	40	Q2:	3
8	35	Q1:	0
9	31	Q1:	0	3
10	26	Q1:	3
11	36	Q4:	0
12	25	Q4:	3
13	38	Q2:	3
14	18	Q1:	0
15	11	Q1:	2
16	14	Q4:	3
17	23	Q4:	1
18	34	Q3:	1
19	9	Q1:	2
20	20	Q4:	1	10
21	27	Q1:	3
22	11	Q0:	1
23	23	Q1:	0	14
24	17	Q0:	1	21
25	32	Q3:	1	5
26	10	Q1:	2
27	36	Q4:	1	17
28	39	Q2:	0
29	12	Q0:	1
30	17	Q4:	0
31	30	Q2:	0	11
32	27	Q4:	0	31
33	17	Q4:	0	17	28
34	23	Q3:	3
35	26	Q2:	3
36	16	Q1:	2	34	17
37	32	Q1:	0	16
38	38	Q1:	3	26
39	17	Q4:	3
40	32	Q4:	0
41	19	Q2:	1	32
42	29	Q3:	3
43	20	Q0:	2
44	28	Q2:	3
45	24	Q4:	0
46	29	Q0:	2
47	37	Q4:	1	34	14
48	32	Q3:	1
49	37	Q2:	1
50	23	Q4:	3
51	18	Q1:	2
52	37	Q3:	3
53	39	Q2:	3
54	17	Q1:	2
55	18	Q2:	1
56	21	Q1:	2	33
57	17	Q1:	2	23	43
58	20	Q4:	0	56
59	19	Q0:	2
60	40	Q4:	1
61	17	Q4:	0	40	53
62	9	Q2:	0	12
63	20	Q3:	1
64	39	Q3:	1
65	14	Q3:	3	19
66	10	Q3:	3	62
67	29	Q0:	2	25
68	16	Q1:	3	63
69	18	Q0:	1	6
70	26	Q0:	1	52	64
71	22	Q4:	3	23
72	10	Q0:	2	71	28
73	20	Q2:	1
74	19	Q3:	3
75	39	Q1:	0
76	10	Q0:	1	11
77	27	Q2:	0
78	24	Q4:	1	21
79	29	Q4:	3	71	54
80	17	Q2:	1
81	30	Q0:	1	46	35
82	17	Q1:	3	22
83	9	Q0:	1
84	38	Q1:	3	30
85	21	Q4:	1
86	26	Q4:	3
87	21	Q2:	1	41	61
88	16	Q3:	3	80
89	12	Q2:	1	24	81	47	30	14
90	18	Q1:	2	4
91	21	Q4:	1	17	56	29
92	20	Q2:	0
93	28	Q4:	0	46	3	70
94	30	Q4:	3	33	36
95	29	Q2:	3
96	24	Q3:	3	2
97	34	Q4:	1	16
98	32	Q3:	1	46
99	24	Q2:	0
100	15	Q2:	3	94
========================================================== 